s 1
v 1 2 4 5 6 9 10 11 12 -13 15 16 17 -18 21 22 -23 26 27 28 -32 -35 36 37 39 40 41 42 -44 46 49 50 51 52 -53 57 58 62 63 65 -66 67 68 69 70 73 75 76 -77 80 81 82 83 88 90 91 92 -93 94 -96 -98 99 -100 101 -103 108 -110 111 112 -113 114 -115 117 -118 121 122 124 -125 128 129 -132 133 134 137 138 140 -143 145 149 -150 -153 -155 156 -158 161 -162 163 167 170 175 176 -177 181 183 184 186 187 188 189 190 191 192 193 194 -195 196 
t 2.00000000000000000ms
